N = 126;
M = 286;
Edge_Start = [1, 2, 3, 3, 4, 5, 6, 7, 7, 8, 9, 9, 10, 11, 13, 14, 15, 16, 17, 19, 19, 20, 21, 22, 23, 23, 24, 25, 25, 26, 27, 27, 28, 29, 29, 30, 31, 32, 32, 33, 34, 34, 36, 38, 38, 39, 40, 40, 41, 42, 43, 44, 44, 45, 46, 46, 48, 49, 49, 50, 51, 51, 52, 53, 54, 55, 55, 57, 57, 58, 59, 59, 61, 61, 62, 63, 64, 64, 65, 66, 66, 68, 68, 69, 70, 71, 72, 72, 73, 74, 74, 76, 77, 80, 81, 82, 83, 83, 84, 85, 85, 86, 87, 87, 88, 91, 92, 93, 93, 94, 95, 96, 97, 98, 98, 100, 100, 101, 102, 102, 104, 105, 106, 106, 107, 108, 108, 109, 110, 110, 112, 113, 114, 115, 116, 118, 119, 120, 121, 122, 123, 124, 125, 16, 3, 4, 18, 5, 20, 7, 8, 22, 9, 10, 24, 11, 12, 28, 15, 30, 17, 33, 20, 35, 21, 37, 23, 24, 39, 25, 26, 41, 27, 28, 43, 29, 30, 45, 31, 47, 33, 48, 34, 35, 50, 37, 39, 54, 40, 41, 56, 42, 43, 44, 45, 60, 46, 47, 62, 49, 50, 65, 51, 52, 67, 53, 69, 55, 56, 71, 58, 73, 59, 60, 75, 62, 77, 63, 79, 65, 80, 66, 67, 82, 69, 84, 70, 71, 72, 73, 88, 74, 75, 90, 77, 78, 81, 82, 83, 84, 99, 85, 86, 101, 87, 88, 103, 89, 92, 93, 94, 109, 95, 111, 97, 98, 99, 114, 101, 116, 102, 103, 118, 105, 106, 107, 122, 108, 109, 124, 110, 111, 126, 113, 114, 115, 116, 117, 119, 120, 121, 122, 123, 124, 125, 126];
Edge_End = [16, 3, 4, 18, 5, 20, 7, 8, 22, 9, 10, 24, 11, 12, 28, 15, 30, 17, 33, 20, 35, 21, 37, 23, 24, 39, 25, 26, 41, 27, 28, 43, 29, 30, 45, 31, 47, 33, 48, 34, 35, 50, 37, 39, 54, 40, 41, 56, 42, 43, 44, 45, 60, 46, 47, 62, 49, 50, 65, 51, 52, 67, 53, 69, 55, 56, 71, 58, 73, 59, 60, 75, 62, 77, 63, 79, 65, 80, 66, 67, 82, 69, 84, 70, 71, 72, 73, 88, 74, 75, 90, 77, 78, 81, 82, 83, 84, 99, 85, 86, 101, 87, 88, 103, 89, 92, 93, 94, 109, 95, 111, 97, 98, 99, 114, 101, 116, 102, 103, 118, 105, 106, 107, 122, 108, 109, 124, 110, 111, 126, 113, 114, 115, 116, 117, 119, 120, 121, 122, 123, 124, 125, 126, 1, 2, 3, 3, 4, 5, 6, 7, 7, 8, 9, 9, 10, 11, 13, 14, 15, 16, 17, 19, 19, 20, 21, 22, 23, 23, 24, 25, 25, 26, 27, 27, 28, 29, 29, 30, 31, 32, 32, 33, 34, 34, 36, 38, 38, 39, 40, 40, 41, 42, 43, 44, 44, 45, 46, 46, 48, 49, 49, 50, 51, 51, 52, 53, 54, 55, 55, 57, 57, 58, 59, 59, 61, 61, 62, 63, 64, 64, 65, 66, 66, 68, 68, 69, 70, 71, 72, 72, 73, 74, 74, 76, 77, 80, 81, 82, 83, 83, 84, 85, 85, 86, 87, 87, 88, 91, 92, 93, 93, 94, 95, 96, 97, 98, 98, 100, 100, 101, 102, 102, 104, 105, 106, 106, 107, 108, 108, 109, 110, 110, 112, 113, 114, 115, 116, 118, 119, 120, 121, 122, 123, 124, 125];
L = [5, 16, 7, 5, 4, 16, 7, 11, 14, 1, 16, 1, 13, 5, 1, 3, 1, 12, 18, 4, 6, 6, 4, 11, 16, 4, 10, 7, 4, 1, 6, 9, 8, 5, 5, 15, 9, 6, 14, 2, 2, 11, 1, 12, 12, 3, 6, 2, 3, 3, 4, 15, 15, 8, 7, 8, 7, 9, 6, 15, 1, 1, 2, 4, 2, 1, 3, 12, 14, 9, 5, 19, 13, 6, 10, 10, 14, 15, 8, 10, 1, 1, 14, 6, 16, 17, 9, 19, 1, 15, 2, 8, 16, 8, 9, 3, 3, 3, 7, 12, 18, 8, 4, 15, 9, 10, 2, 5, 19, 8, 11, 8, 1, 9, 18, 11, 2, 14, 8, 9, 6, 18, 17, 6, 10, 16, 15, 13, 17, 3, 11, 15, 9, 3, 9, 14, 12, 9, 16, 12, 15, 6, 1, 5, 16, 7, 5, 4, 16, 7, 11, 14, 1, 16, 1, 13, 5, 1, 3, 1, 12, 18, 4, 6, 6, 4, 11, 16, 4, 10, 7, 4, 1, 6, 9, 8, 5, 5, 15, 9, 6, 14, 2, 2, 11, 1, 12, 12, 3, 6, 2, 3, 3, 4, 15, 15, 8, 7, 8, 7, 9, 6, 15, 1, 1, 2, 4, 2, 1, 3, 12, 14, 9, 5, 19, 13, 6, 10, 10, 14, 15, 8, 10, 1, 1, 14, 6, 16, 17, 9, 19, 1, 15, 2, 8, 16, 8, 9, 3, 3, 3, 7, 12, 18, 8, 4, 15, 9, 10, 2, 5, 19, 8, 11, 8, 1, 9, 18, 11, 2, 14, 8, 9, 6, 18, 17, 6, 10, 16, 15, 13, 17, 3, 11, 15, 9, 3, 9, 14, 12, 9, 16, 12, 15, 6, 1];
T = [1, 13, 4, 8, 12, 18, 6, 14, 8, 5, 10, 5, 13, 17, 8, 3, 1, 12, 25, 2, 10, 3, 1, 9, 19, 3, 1, 1, 1, 2, 5, 12, 14, 1, 9, 11, 12, 2, 14, 5, 7, 6, 1, 14, 5, 1, 8, 1, 8, 3, 6, 12, 8, 4, 4, 9, 9, 10, 8, 10, 3, 1, 1, 1, 2, 1, 10, 13, 13, 8, 1, 20, 19, 10, 15, 12, 10, 14, 14, 11, 1, 1, 9, 4, 17, 18, 6, 15, 1, 11, 2, 3, 15, 6, 2, 4, 1, 2, 13, 11, 18, 4, 7, 12, 4, 10, 1, 11, 30, 6, 9, 12, 1, 8, 23, 8, 1, 10, 13, 4, 10, 28, 23, 5, 11, 17, 18, 2, 18, 1, 12, 13, 12, 1, 8, 1, 12, 14, 19, 13, 18, 9, 1, 1, 13, 4, 8, 12, 18, 6, 14, 8, 5, 10, 5, 13, 17, 8, 3, 1, 12, 25, 2, 10, 3, 1, 9, 19, 3, 1, 1, 1, 2, 5, 12, 14, 1, 9, 11, 12, 2, 14, 5, 7, 6, 1, 14, 5, 1, 8, 1, 8, 3, 6, 12, 8, 4, 4, 9, 9, 10, 8, 10, 3, 1, 1, 1, 2, 1, 10, 13, 13, 8, 1, 20, 19, 10, 15, 12, 10, 14, 14, 11, 1, 1, 9, 4, 17, 18, 6, 15, 1, 11, 2, 3, 15, 6, 2, 4, 1, 2, 13, 11, 18, 4, 7, 12, 4, 10, 1, 11, 30, 6, 9, 12, 1, 8, 23, 8, 1, 10, 13, 4, 10, 28, 23, 5, 11, 17, 18, 2, 18, 1, 12, 13, 12, 1, 8, 1, 12, 14, 19, 13, 18, 9, 1];
Lower_Bound = [0, 109, 96, 92, 80, 124, 118, 117, 112, 122, 135, 152, 122, 133, 130, 1, 13, 104, 60, 62, 65, 110, 101, 107, 106, 107, 109, 114, 128, 129, 140, 40, 38, 43, 50, 67, 66, 102, 98, 97, 105, 113, 116, 122, 134, 138, 142, 54, 59, 49, 59, 62, 63, 97, 95, 96, 122, 135, 131, 130, 166, 147, 162, 77, 67, 71, 60, 65, 64, 68, 85, 103, 109, 110, 121, 179, 176, 191, 174, 80, 74, 72, 75, 74, 87, 98, 102, 109, 113, 112, 250, 240, 239, 240, 234, 98, 86, 85, 77, 113, 105, 115, 114, 208, 198, 170, 193, 204, 209, 207, 225, 133, 121, 108, 115, 114, 122, 119, 120, 132, 146, 165, 178, 196, 205, 206];
Upper_Bound = [0, 109, 96, 92, 80, 124, 118, 117, 112, 122, 135, 152, 122, 133, 130, 1, 13, 104, 60, 62, 65, 110, 101, 107, 106, 107, 109, 114, 128, 129, 140, 40, 38, 43, 50, 67, 66, 102, 98, 97, 105, 113, 116, 122, 134, 138, 142, 54, 59, 49, 59, 62, 63, 97, 95, 96, 122, 135, 131, 130, 166, 147, 162, 77, 67, 71, 60, 65, 64, 68, 85, 103, 109, 110, 121, 179, 176, 191, 174, 80, 74, 72, 75, 74, 87, 98, 102, 109, 113, 112, 250, 240, 239, 240, 234, 98, 86, 85, 77, 113, 105, 115, 114, 208, 198, 170, 193, 204, 209, 207, 225, 133, 121, 108, 115, 114, 122, 119, 120, 132, 146, 165, 178, 196, 205, 206];
Start = 1;
End = 126;
Time = 206;
